Route #1: 126 13 130 136 115 124 70 4 109 9 120 97 19 7 32 16 36 25 118 128 127 84 68
Route #2: 40 59 135 58 48 87 1 111 60 79 98 31 6 102 72 53 110 114 43 8 107 5 86 41
Route #3: 67 46 30 121 34 138 105 129 76 3 94 75 26 112 113 10 63 103 38 92 108 117
Route #4: 66 24 106 27 77 14 37 122 22 119 80 39 29 42 131 69 140 141 15 134 101
Route #5: 85 35 91 56 57 95 139 55 142 83 28 133 18 44 64 90 61 45 65 89 12 54
Route #6: 11 100 74 81 47 96 62 104 132 23 21 33 125 123 82 137 99 20 52 88
Route #7: 116 17 78 2 93 73 51 49 50 71
Cost 17448
